peakDumbCharging = 7400; 
Machine = anon_enum(16); 
machineSpeed = [3700,3700,3700,3700,3700,3700,3700,3700,3700,3700,3700,3700,3700,3700,3700,3700]; 
machineLoad = [3700,3700,3700,3700,3700,3700,3700,3700,3700,3700,3700,3700,3700,3700,3700,3700]; 
Car = anon_enum(6); 
demandCar = [7520,4680,9640,16400,4440,14040]; 
arrivalCar = [71,68,65,53,50,43]; 
departureCar = [75,71,69,58,53,51]; 
